\ENCODING=ISO-8859-1
\Problem name: ilog.cplex

Minimize
 obj: 46.66 x0 + 47.16 x1 + 34.5 x2 + 31.05 x3 + 36.25 x4 + 42.13 x5 + 32 x6
      + 46.76 x7 + 33.13 x8 + 45.44 x9 + 197.09 x10 + 26.47 x11 + 5.53 x12
      + 4.92 x13 + 0.68 x14 + 13.48 x15 + 134.48 x16 + 26.87 x17 + 8.44 x18
      + 6.52 x19 + 1.81 x20 + 4.13 x21 + 17.14 x22 + 176.25 x23 + 25.03 x24
      + 19.88 x25 + 1.59 x26 + 8.42 x27 + 12.57 x28 + 3.56 x29 + 112.24 x30
      + 29.89 x31 + 8.68 x32 + 11.53 x33 + 18.59 x34 + 4.22 x35 + 178.26 x36
      + 33.31 x37 + 2.35 x38 + 16.84 x39 + 16.47 x40 + 1.76 x41 + 8.47 x42
      + 150.78 x43 + 29.65 x44 + 17.52 x45 + 10.28 x46 + 2.26 x47 + 16.12 x48
      + 142.03 x49 + 22.65 x50 + 17.13 x51 + 13.11 x52 + 4.16 x53 + 0.58 x54
      + 185.48 x55 + 38.94 x56 + 0.4 x57 + 12.88 x58 + 3.66 x59 + 1.8 x60
      + 117.97 x61 + 35.36 x62 + 13.14 x63 + 17.52 x64 + 4.54 x65 + 10.06 x66
      + 15.51 x67 + 191.22 x68 + 23.59 x69 + 18.04 x70 + 11.39 x71 + 12.97 x72
      + 10.79 x73 + 20.84 y0 + 20.84 y1 + 23.72 y2 + 27.79 y3 + 31.85 y4
      + 39.02 y5 + 153.95 y6 + 20.01 y7 + 20.86 y8 + 28.05 y9 + 28.05 y10
      + 43.6 y11 + 196.56 y12 + 18.19 y13 + 18.19 y14 + 26.84 y15 + 26.9 y16
      + 30.47 y17 + 54.38 y18 + 162.17 y19 + 12.29 y20 + 25.03 y21 + 30.63 y22
      + 38.99 y23 + 136.95 y24 + 19.25 y25 + 19.57 y26 + 28.3 y27 + 30.43 y28
      + 32.47 y29 + 39.51 y30 + 116 y31 + 19.2 y32 + 21.43 y33 + 29.51 y34
      + 32.37 y35 + 38.63 y36 + 127.07 y37 + 19.48 y38 + 19.48 y39 + 27.28 y40
      + 33.05 y41 + 36.1 y42 + 37.27 y43 + 42.54 y44 + 162.99 y45 + 11.13 y46
      + 21.32 y47 + 23.58 y48 + 33.9 y49 + 41.78 y50 + 159.3 y51 + 24.22 y52
      + 30.14 y53 + 36.18 y54 + 40.65 y55 + 41.15 y56 + 52.04 y57 + 103.77 y58
      + 18.38 y59 + 20.66 y60 + 26.9 y61 + 33.18 y62 + 48.32 y63 + 157.44 y64
Subject To
 N23:     x10 + x11 + x12 + x13 + x14 + x15  = 22.8750001220703
 N24:     x16 + x17 + x18 + x19 + x20 + x21 + x22  = 10
 N25:     x23 + x24 + x25 + x26 + x27 + x28 + x29  = 20.1249998779297
 N26:     x30 + x31 + x32 + x33 + x34 + x35  = 11
 N27:     x36 + x37 + x38 + x39 + x40 + x41 + x42  = 32
 N28:     x43 + x44 + x45 + x46 + x47 + x48  = 29
 N29:     x49 + x50 + x51 + x52 + x53 + x54  = 25
 N30:     x55 + x56 + x57 + x58 + x59 + x60  = 15
 N31:     x61 + x62 + x63 + x64 + x65 + x66 + x67  = 22
 N32:     x68 + x69 + x70 + x71 + x72 + x73  = 23
 N34:     x0 + x11 + x26 + x70 + x71 - y0 - y1 - y2 - y3 - y4 - y5 - y6  = 0
 N35:     x1 + x12 + x17 + x47 + x48 + x64 - y7 - y8 - y9 - y10 - y11 - y12
           = 0
 N36:     x2 + x19 + x24 + x32 + x33 + x34 + x40 + x67 + x72 - y13 - y14 - y15
          - y16 - y17 - y18 - y19  = 0
 N37:     x3 + x18 + x28 + x31 + x42 + x45 + x51 + x59 + x63 - y20 - y21 - y22
          - y23 - y24  = 0
 N38:     x4 + x13 + x35 + x37 + x58 - y25 - y26 - y27 - y28 - y29 - y30 - y31
           = 0
 N39:     x5 + x44 + x53 + x54 + x60 - y32 - y33 - y34 - y35 - y36 - y37  = 0
 N40:     x6 + x15 + x38 + x39 + x46 + x50 - y38 - y39 - y40 - y41 - y42 - y43
          - y44 - y45  = 0
 N41:     x7 + x22 + x27 + x29 + x52 + x56 + x66 + x73 - y46 - y47 - y48 - y49
          - y50 - y51  = 0
 N42:     x8 + x25 + x41 + x62 - y52 - y53 - y54 - y55 - y56 - y57 - y58  = 0
 N43:     x9 + x14 + x20 + x21 + x57 + x65 + x69 - y59 - y60 - y61 - y62 - y63
          - y64  = 0
 Y2_1_0:  y0 <= 5
 Y2_1_1:  y1 <= 4
 Y2_1_2:  y2 <= 5
 Y2_1_3:  y3 <= 14
 Y2_1_4:  y4 <= 7
 Y2_1_5:  y5 <= 8
 Y2_1_6:  y6 <= 1000
 Y2_2_0:  y7 <= 5
 Y2_2_1:  y8 <= 7
 Y2_2_2:  y9 <= 14
 Y2_2_3:  y10 <= 3
 Y2_2_4:  y11 <= 7
 Y2_2_5:  y12 <= 1000
 Y2_3_0:  y13 <= 1
 Y2_3_1:  y14 <= 5
 Y2_3_2:  y15 <= 9
 Y2_3_3:  y16 <= 8
 Y2_3_4:  y17 <= 7
 Y2_3_5:  y18 <= 6
 Y2_3_6:  y19 <= 1000
 Y2_4_0:  y20 <= 7
 Y2_4_1:  y21 <= 9
 Y2_4_2:  y22 <= 17
 Y2_4_3:  y23 <= 5
 Y2_4_4:  y24 <= 1000
 Y2_5_0:  y25 <= 7
 Y2_5_1:  y26 <= 7
 Y2_5_2:  y27 <= 9
 Y2_5_3:  y28 <= 5
 Y2_5_4:  y29 <= 9
 Y2_5_5:  y30 <= 9
 Y2_5_6:  y31 <= 1000
 Y2_6_0:  y32 <= 5
 Y2_6_1:  y33 <= 6
 Y2_6_2:  y34 <= 5
 Y2_6_3:  y35 <= 13
 Y2_6_4:  y36 <= 6
 Y2_6_5:  y37 <= 1000
 Y2_7_0:  y38 <= 1
 Y2_7_1:  y39 <= 5
 Y2_7_2:  y40 <= 8
 Y2_7_3:  y41 <= 9
 Y2_7_4:  y42 <= 9
 Y2_7_5:  y43 <= 9
 Y2_7_6:  y44 <= 5
 Y2_7_7:  y45 <= 1000
 Y2_8_0:  y46 <= 9
 Y2_8_1:  y47 <= 6
 Y2_8_2:  y48 <= 6
 Y2_8_3:  y49 <= 5
 Y2_8_4:  y50 <= 9
 Y2_8_5:  y51 <= 1000
 Y2_9_0:  y52 <= 6
 Y2_9_1:  y53 <= 5
 Y2_9_2:  y54 <= 6
 Y2_9_3:  y55 <= 9
 Y2_9_4:  y56 <= 9
 Y2_9_5:  y57 <= 7
 Y2_9_6:  y58 <= 1000
 Y2_10_0: y59 <= 6
 Y2_10_1: y60 <= 8
 Y2_10_2: y61 <= 9
 Y2_10_3: y62 <= 7
 Y2_10_4: y63 <= 6
 Y2_10_5: y64 <= 1000
Bounds
 0 <= x0 <= 1000
 0 <= x1 <= 1000
 0 <= x2 <= 1000
 0 <= x3 <= 1000
 0 <= x4 <= 1000
 0 <= x5 <= 1000
 0 <= x6 <= 1000
 0 <= x7 <= 1000
 0 <= x8 <= 1000
 0 <= x9 <= 1000
 0 <= x10 <= 1000
 0 <= x11 <= 5
 0 <= x12 <= 5
 0 <= x13 <= 9
 0 <= x14 <= 6
 0 <= x15 <= 9
 0 <= x16 <= 1000
 0 <= x17 <= 7
 0 <= x18 <= 7
 0 <= x19 <= 7
 0 <= x20 <= 8
 0 <= x21 <= 7
 0 <= x22 <= 5
 0 <= x23 <= 1000
 0 <= x24 <= 7
 0 <= x25 <= 6
 0 <= x26 <= 9
 0 <= x27 <= 5
 0 <= x28 <= 8
 0 <= x29 <= 6
 0 <= x30 <= 1000
 0 <= x31 <= 6
 0 <= x32 <= 9
 0 <= x33 <= 5
 0 <= x34 <= 6
 0 <= x35 <= 7
 0 <= x36 <= 1000
 0 <= x37 <= 6
 0 <= x38 <= 7
 0 <= x39 <= 6
 0 <= x40 <= 6
 0 <= x41 <= 7
 0 <= x42 <= 6
 0 <= x43 <= 1000
 0 <= x44 <= 5
 0 <= x45 <= 9
 0 <= x46 <= 7
 0 <= x47 <= 8
 0 <= x48 <= 5
 0 <= x49 <= 1000
 0 <= x50 <= 9
 0 <= x51 <= 6
 0 <= x52 <= 8
 0 <= x53 <= 5
 0 <= x54 <= 6
 0 <= x55 <= 1000
 0 <= x56 <= 9
 0 <= x57 <= 9
 0 <= x58 <= 5
 0 <= x59 <= 5
 0 <= x60 <= 8
 0 <= x61 <= 1000
 0 <= x62 <= 9
 0 <= x63 <= 5
 0 <= x64 <= 9
 0 <= x65 <= 6
 0 <= x66 <= 8
 0 <= x67 <= 6
 0 <= x68 <= 1000
 0 <= x69 <= 8
 0 <= x70 <= 8
 0 <= x71 <= 5
 0 <= x72 <= 7
 0 <= x73 <= 7
 0 <= y0 <= 1001
 0 <= y1 <= 1001
 0 <= y2 <= 1001
 0 <= y3 <= 1001
 0 <= y4 <= 1001
 0 <= y5 <= 1001
 0 <= y6 <= 1001
 0 <= y7 <= 1001
 0 <= y8 <= 1001
 0 <= y9 <= 1001
 0 <= y10 <= 1001
 0 <= y11 <= 1001
 0 <= y12 <= 1001
 0 <= y13 <= 1001
 0 <= y14 <= 1001
 0 <= y15 <= 1001
 0 <= y16 <= 1001
 0 <= y17 <= 1001
 0 <= y18 <= 1001
 0 <= y19 <= 1001
 0 <= y20 <= 1001
 0 <= y21 <= 1001
 0 <= y22 <= 1001
 0 <= y23 <= 1001
 0 <= y24 <= 1001
 0 <= y25 <= 1001
 0 <= y26 <= 1001
 0 <= y27 <= 1001
 0 <= y28 <= 1001
 0 <= y29 <= 1001
 0 <= y30 <= 1001
 0 <= y31 <= 1001
 0 <= y32 <= 1001
 0 <= y33 <= 1001
 0 <= y34 <= 1001
 0 <= y35 <= 1001
 0 <= y36 <= 1001
 0 <= y37 <= 1001
 0 <= y38 <= 1001
 0 <= y39 <= 1001
 0 <= y40 <= 1001
 0 <= y41 <= 1001
 0 <= y42 <= 1001
 0 <= y43 <= 1001
 0 <= y44 <= 1001
 0 <= y45 <= 1001
 0 <= y46 <= 1001
 0 <= y47 <= 1001
 0 <= y48 <= 1001
 0 <= y49 <= 1001
 0 <= y50 <= 1001
 0 <= y51 <= 1001
 0 <= y52 <= 1001
 0 <= y53 <= 1001
 0 <= y54 <= 1001
 0 <= y55 <= 1001
 0 <= y56 <= 1001
 0 <= y57 <= 1001
 0 <= y58 <= 1001
 0 <= y59 <= 1001
 0 <= y60 <= 1001
 0 <= y61 <= 1001
 0 <= y62 <= 1001
 0 <= y63 <= 1001
 0 <= y64 <= 1001
End
